





































































































9 8 72 18 40 1 
35 51 55 17 33 68 
31 0 41 36 32 53 52 
38 6 24 11 26 69 
16 58 25 75 54 57 12 
3 76 49 30 29 61 56 
7 14 4 74 62 10 
63 42 43 23 22 66 
44 15 45 50 5 67 
70 65 21 20 13 71 
27 19 60 46 34 39 
37 48 64 47 73 2 
59 28 
